(set-info :original "/var/folders/xz/sgqbj6yn0yv_1mpy6_jqympm0000gn/T/sea-9Zr_cd/cmp_refl.pp.ms.o.bc")
(set-info :authors "SeaHorn v.0.1.0-rc3")
(declare-rel verifier.error (Bool Bool Bool ))
(declare-rel main@entry (Int Int ))
(declare-rel main@_bb (Int Int Int Int (Array Int Int) ))
(declare-rel main@_bb3 (Int Int (Array Int Int) ))
(declare-rel main@cmp.exit.i.split ())
(declare-var main@%_13_0 Int )
(declare-var main@%_14_0 Int )
(declare-var main@%_15_0 Bool )
(declare-var main@%_11_0 Int )
(declare-var main@%.01.i.i_2 Int )
(declare-var main@%_6_0 Int )
(declare-var @__VERIFIER_nondet_char_0 Int )
(declare-var main@%_7_0 Int )
(declare-var main@%_8_0 Int )
(declare-var main@%_10_0 Bool )
(declare-var main@%shadow.mem.0.0_2 (Array Int Int) )
(declare-var main@%.0.i.i1_2 Int )
(declare-var main@%_0_0 Int )
(declare-var @__VERIFIER_nondet_int_0 Int )
(declare-var main@%_1_0 Int )
(declare-var main@%_4_0 Bool )
(declare-var main@entry_0 Bool )
(declare-var main@%sm2_0 (Array Int Int) )
(declare-var main@%_2_0 Int )
(declare-var main@%_3_0 Int )
(declare-var main@.lr.ph_0 Bool )
(declare-var main@_bb_0 Bool )
(declare-var main@%shadow.mem.0.0_0 (Array Int Int) )
(declare-var main@%.0.i.i1_0 Int )
(declare-var main@%shadow.mem.0.0_1 (Array Int Int) )
(declare-var main@%.0.i.i1_1 Int )
(declare-var main@init.exit.i_0 Bool )
(declare-var main@%shadow.mem.0.1_0 (Array Int Int) )
(declare-var main@%shadow.mem.0.1_1 (Array Int Int) )
(declare-var main@%sm1_0 (Array Int Int) )
(declare-var main@_bb3_0 Bool )
(declare-var main@%.01.i.i_0 Int )
(declare-var main@%.01.i.i_1 Int )
(declare-var main@%sm_0 (Array Int Int) )
(declare-var main@%_9_0 Int )
(declare-var main@_bb_1 Bool )
(declare-var main@init.exit.i.loopexit_0 Bool )
(declare-var main@%_16_0 Int )
(declare-var main@_bb3_1 Bool )
(declare-var main@cmp.exit.i_0 Bool )
(declare-var main@cmp.exit.i.split_0 Bool )
(rule (verifier.error false false false))
(rule (verifier.error false true true))
(rule (verifier.error true false true))
(rule (verifier.error true true true))
(rule (main@entry @__VERIFIER_nondet_char_0 @__VERIFIER_nondet_int_0))
(rule (=> (and (main@entry @__VERIFIER_nondet_char_0 @__VERIFIER_nondet_int_0)
         true
         (= main@%_0_0 @__VERIFIER_nondet_int_0)
         (> main@%_2_0 0)
         (= main@%_3_0 (+ main@%_1_0 (- 1)))
         (= main@%_4_0 (> main@%_1_0 1))
         (=> main@.lr.ph_0 (and main@.lr.ph_0 main@entry_0))
         (=> (and main@.lr.ph_0 main@entry_0) main@%_4_0)
         (=> main@_bb_0 (and main@_bb_0 main@.lr.ph_0))
         (=> (and main@_bb_0 main@.lr.ph_0)
             (= main@%shadow.mem.0.0_0 main@%sm2_0))
         (=> (and main@_bb_0 main@.lr.ph_0) (= main@%.0.i.i1_0 0))
         (=> (and main@_bb_0 main@.lr.ph_0)
             (= main@%shadow.mem.0.0_1 main@%shadow.mem.0.0_0))
         (=> (and main@_bb_0 main@.lr.ph_0) (= main@%.0.i.i1_1 main@%.0.i.i1_0))
         main@_bb_0)
    (main@_bb main@%_2_0
              main@%_3_0
              @__VERIFIER_nondet_char_0
              main@%.0.i.i1_1
              main@%shadow.mem.0.0_1)))
(rule (let ((a!1 (=> main@init.exit.i_0
               (= main@%_11_0 (+ main@%_2_0 (* main@%_3_0 1))))))
(let ((a!2 (and (main@entry @__VERIFIER_nondet_char_0 @__VERIFIER_nondet_int_0)
                true
                (= main@%_0_0 @__VERIFIER_nondet_int_0)
                (> main@%_2_0 0)
                (= main@%_3_0 (+ main@%_1_0 (- 1)))
                (= main@%_4_0 (> main@%_1_0 1))
                (=> main@init.exit.i_0 (and main@init.exit.i_0 main@entry_0))
                (=> (and main@init.exit.i_0 main@entry_0) (not main@%_4_0))
                (=> (and main@init.exit.i_0 main@entry_0)
                    (= main@%shadow.mem.0.1_0 main@%sm2_0))
                (=> (and main@init.exit.i_0 main@entry_0)
                    (= main@%shadow.mem.0.1_1 main@%shadow.mem.0.1_0))
                a!1
                (=> main@init.exit.i_0 (or (<= main@%_2_0 0) (> main@%_11_0 0)))
                (=> main@init.exit.i_0 (> main@%_2_0 0))
                (=> main@init.exit.i_0
                    (= main@%sm1_0 (store main@%shadow.mem.0.1_1 main@%_11_0 0)))
                (=> main@_bb3_0 (and main@_bb3_0 main@init.exit.i_0))
                (=> (and main@_bb3_0 main@init.exit.i_0) (= main@%.01.i.i_0 0))
                (=> (and main@_bb3_0 main@init.exit.i_0)
                    (= main@%.01.i.i_1 main@%.01.i.i_0))
                main@_bb3_0)))
  (=> a!2 (main@_bb3 main@%_2_0 main@%.01.i.i_1 main@%sm1_0)))))
(rule (let ((a!1 (and (main@_bb main@%_2_0
                          main@%_3_0
                          @__VERIFIER_nondet_char_0
                          main@%.0.i.i1_0
                          main@%shadow.mem.0.0_0)
                true
                (= main@%_6_0 @__VERIFIER_nondet_char_0)
                (= main@%_8_0 (+ main@%_2_0 (* main@%.0.i.i1_0 1)))
                (or (<= main@%_2_0 0) (> main@%_8_0 0))
                (> main@%_2_0 0)
                (= main@%sm_0
                   (store main@%shadow.mem.0.0_0 main@%_8_0 main@%_7_0))
                (= main@%_9_0 (+ main@%.0.i.i1_0 1))
                (= main@%_10_0 (< main@%_9_0 main@%_3_0))
                (=> main@_bb_1 (and main@_bb_1 main@_bb_0))
                (=> (and main@_bb_1 main@_bb_0) main@%_10_0)
                (=> (and main@_bb_1 main@_bb_0)
                    (= main@%shadow.mem.0.0_1 main@%sm_0))
                (=> (and main@_bb_1 main@_bb_0) (= main@%.0.i.i1_1 main@%_9_0))
                (=> (and main@_bb_1 main@_bb_0)
                    (= main@%shadow.mem.0.0_2 main@%shadow.mem.0.0_1))
                (=> (and main@_bb_1 main@_bb_0)
                    (= main@%.0.i.i1_2 main@%.0.i.i1_1))
                main@_bb_1)))
  (=> a!1
      (main@_bb main@%_2_0
                main@%_3_0
                @__VERIFIER_nondet_char_0
                main@%.0.i.i1_2
                main@%shadow.mem.0.0_2))))
(rule (let ((a!1 (=> main@init.exit.i_0
               (= main@%_11_0 (+ main@%_2_0 (* main@%_3_0 1))))))
(let ((a!2 (and (main@_bb main@%_2_0
                          main@%_3_0
                          @__VERIFIER_nondet_char_0
                          main@%.0.i.i1_0
                          main@%shadow.mem.0.0_0)
                true
                (= main@%_6_0 @__VERIFIER_nondet_char_0)
                (= main@%_8_0 (+ main@%_2_0 (* main@%.0.i.i1_0 1)))
                (or (<= main@%_2_0 0) (> main@%_8_0 0))
                (> main@%_2_0 0)
                (= main@%sm_0
                   (store main@%shadow.mem.0.0_0 main@%_8_0 main@%_7_0))
                (= main@%_9_0 (+ main@%.0.i.i1_0 1))
                (= main@%_10_0 (< main@%_9_0 main@%_3_0))
                (=> main@init.exit.i.loopexit_0
                    (and main@init.exit.i.loopexit_0 main@_bb_0))
                (=> (and main@init.exit.i.loopexit_0 main@_bb_0)
                    (not main@%_10_0))
                (=> main@init.exit.i_0
                    (and main@init.exit.i_0 main@init.exit.i.loopexit_0))
                (=> (and main@init.exit.i_0 main@init.exit.i.loopexit_0)
                    (= main@%shadow.mem.0.1_0 main@%sm_0))
                (=> (and main@init.exit.i_0 main@init.exit.i.loopexit_0)
                    (= main@%shadow.mem.0.1_1 main@%shadow.mem.0.1_0))
                a!1
                (=> main@init.exit.i_0 (or (<= main@%_2_0 0) (> main@%_11_0 0)))
                (=> main@init.exit.i_0 (> main@%_2_0 0))
                (=> main@init.exit.i_0
                    (= main@%sm1_0 (store main@%shadow.mem.0.1_1 main@%_11_0 0)))
                (=> main@_bb3_0 (and main@_bb3_0 main@init.exit.i_0))
                (=> (and main@_bb3_0 main@init.exit.i_0) (= main@%.01.i.i_0 0))
                (=> (and main@_bb3_0 main@init.exit.i_0)
                    (= main@%.01.i.i_1 main@%.01.i.i_0))
                main@_bb3_0)))
  (=> a!2 (main@_bb3 main@%_2_0 main@%.01.i.i_1 main@%sm1_0)))))
(rule (let ((a!1 (and (main@_bb3 main@%_2_0 main@%.01.i.i_0 main@%sm1_0)
                true
                (= main@%_13_0 (+ main@%_2_0 (* main@%.01.i.i_0 1)))
                (or (<= main@%_2_0 0) (> main@%_13_0 0))
                (> main@%_2_0 0)
                (= main@%_14_0 (select main@%sm1_0 main@%_13_0))
                (= main@%_15_0 (= main@%_14_0 0))
                (= main@%_16_0 (+ main@%.01.i.i_0 1))
                (=> main@_bb3_1 (and main@_bb3_1 main@_bb3_0))
                (=> (and main@_bb3_1 main@_bb3_0) (not main@%_15_0))
                (=> (and main@_bb3_1 main@_bb3_0)
                    (= main@%.01.i.i_1 main@%_16_0))
                (=> (and main@_bb3_1 main@_bb3_0)
                    (= main@%.01.i.i_2 main@%.01.i.i_1))
                main@_bb3_1)))
  (=> a!1 (main@_bb3 main@%_2_0 main@%.01.i.i_2 main@%sm1_0))))
(rule (let ((a!1 (and (main@_bb3 main@%_2_0 main@%.01.i.i_0 main@%sm1_0)
                true
                (= main@%_13_0 (+ main@%_2_0 (* main@%.01.i.i_0 1)))
                (or (<= main@%_2_0 0) (> main@%_13_0 0))
                (> main@%_2_0 0)
                (= main@%_14_0 (select main@%sm1_0 main@%_13_0))
                (= main@%_15_0 (= main@%_14_0 0))
                (= main@%_16_0 (+ main@%.01.i.i_0 1))
                (=> main@cmp.exit.i_0 (and main@cmp.exit.i_0 main@_bb3_0))
                (=> (and main@cmp.exit.i_0 main@_bb3_0) main@%_15_0)
                (=> main@cmp.exit.i_0 false)
                (=> main@cmp.exit.i.split_0
                    (and main@cmp.exit.i.split_0 main@cmp.exit.i_0))
                main@cmp.exit.i.split_0)))
  (=> a!1 main@cmp.exit.i.split)))
(query main@cmp.exit.i.split)

